g3 1 1 0	# problem unknown
 4 3 1 1 1 	# vars, constraints, objectives, ranges, eqns
 0 1 0 0 0 0	# nonlinear constrs, objs; ccons: lin, nonlin, nd, nzlb
 0 0	# network constraints: nonlinear, linear
 0 4 0 	# nonlinear vars in constraints, objectives, both
 0 0 0 1	# linear network variables; functions; arith, flags
 0 0 0 0 0 	# discrete variables: binary, integer, nonlinear (b,c,o)
 3 4 	# nonzeros in Jacobian, obj. gradient
 0 0	# max name lengths: constraints, variables
 0 0 0 0 0	# common exprs: b,c,o,c1,o1
C0
n0
C1
n0
C2
n0
O0 0
o0
n-4
o54
11
o5
v0
n2
o5
v1
n2
o5
o0
v2
v3
n2
o5
o41
v2
n2
o2
o5
v0
n2
o5
v1
n2
o5
o41
v2
n2
o5
o0
v3
n-1
n2
o5
o5
v1
n2
n2
o5
o0
o5
v2
n2
o5
o0
v3
v0
n2
n2
o5
o54
4
v0
o5
o41
v3
n2
o2
o5
v1
n2
o5
v2
n2
n-4
n2
o5
o41
v3
n4
x0
r
2 1.0
0 -10000000000.0 1.0
4 2.0
b
3
3
3
3
k3
0
1
2
J0 1
1 1
J1 1
2 1
J2 1
3 1
G0 4
0 0
1 0
2 1
3 1
